32	0

0	1	2
3	1	3
8	1	4
3	1	5
4	1	6
6	1	7
9	1	8
1	1	9
2	1	10
5	1	11
6	1	12
6	1	13
7	1	14
1	1	15
3	1	16
3	1	17
4	1	18
6	1	19
8	1	20
8	1	21
9	1	22
9	1	23
10	1	24
10	1	25
1	1	26
4	2	27	28
4	1	29
1	1	29
5	1	30
10	1	31
10	1	32
0	0
